c Result of efficient AIG-to-CNF conversion using package CNF
p cnf 35 82
-2 3 8 15 0
-2 3 -8 -15 0
2 -3 0
2 8 -15 0
2 -8 15 0
3 24 -4 -6 0
3 25 -4 -6 0
-3 6 0
-3 4 0
-3 -24 -25 0
4 -21 -22 -23 -5 0
-4 5 0
-4 21 0
-4 23 0
-4 22 0
5 -19 -20 -26 -27 0
-5 27 0
-5 19 0
-5 26 0
-5 20 0
6 -28 -29 -30 7 0
-6 -7 0
-6 28 0
-6 30 0
-6 29 0
-7 25 26 0
7 -25 0
7 -26 0
-8 34 9 12 14 0
8 -34 0
8 -14 0
8 -12 0
8 -9 0
-9 -29 10 11 0
-9 30 10 11 0
9 -10 0
9 -11 0
9 29 -30 0
-10 -30 -31 33 0
-10 31 32 33 0
-10 -30 -31 -32 0
10 32 -33 0
10 31 -32 0
10 30 -31 0
11 -23 34 0
-11 23 0
-11 -34 0
-12 -24 -25 13 0
-12 25 26 13 0
12 -13 0
12 24 -25 0
12 25 -26 0
13 26 -27 0
13 27 -28 0
-13 -26 -27 0
-13 27 28 0
-14 -23 29 0
-14 24 -28 0
-14 24 29 0
-14 -23 -28 0
14 23 -24 0
14 28 -29 0
-15 32 33 34 16 0
15 -16 0
15 -34 0
15 -32 0
15 -33 0
-16 23 24 7 17 0
16 -23 0
16 -17 0
16 -7 0
16 -24 0
-17 29 30 31 18 0
17 -18 0
17 -31 0
17 -29 0
17 -30 0
-18 27 28 0
18 -27 0
18 -28 0
-35 0
2 0

